
Gurobi 9.0.3 (linux64, gurobi_cl) logging started Thu Oct 14 12:53:35 2021

Using license file /usr/physics/gurobi/gurobi.lic
Set parameter TokenServer to value suphys.physics.usyd.edu.au
Set parameter LogFile to value gurobi.log

Gurobi 9.0.3 (linux64, gurobi_cl) logging started Thu Oct 14 12:53:55 2021

Using license file /usr/physics/gurobi/gurobi.lic
Set parameter TokenServer to value suphys.physics.usyd.edu.au
Set parameter LogFile to value gurobi.log

Gurobi 9.0.3 (linux64, gurobi_cl) logging started Thu Oct 14 12:54:21 2021

Using license file /usr/physics/gurobi/gurobi.lic
Set parameter TokenServer to value suphys.physics.usyd.edu.au
Set parameter LogFile to value gurobi.log

Gurobi 9.0.3 (linux64, gurobi_cl) logging started Thu Oct 14 12:54:28 2021

Using license file /usr/physics/gurobi/gurobi.lic
Set parameter TokenServer to value suphys.physics.usyd.edu.au
Set parameter LogFile to value gurobi.log

Gurobi 9.0.3 (linux64, gurobi_cl) logging started Thu Oct 14 12:54:44 2021

Using license file /usr/physics/gurobi/gurobi.lic
Set parameter TokenServer to value suphys.physics.usyd.edu.au
Set parameter LogFile to value gurobi.log

Gurobi 9.0.3 (linux64, gurobi_cl) logging started Thu Oct 14 12:54:50 2021

Using license file /usr/physics/gurobi/gurobi.lic
Set parameter TokenServer to value suphys.physics.usyd.edu.au
Set parameter LogFile to value gurobi.log

Gurobi 9.0.3 (linux64, gurobi_cl) logging started Thu Oct 14 12:55:39 2021

Using license file /usr/physics/gurobi/gurobi.lic
Set parameter TokenServer to value suphys.physics.usyd.edu.au
Set parameter LogFile to value gurobi.log

Gurobi 9.0.3 (linux64, gurobi_cl) logging started Thu Oct 14 12:56:16 2021

Using license file /usr/physics/gurobi/gurobi.lic
Set parameter TokenServer to value suphys.physics.usyd.edu.au
Set parameter LogFile to value gurobi.log

Gurobi 9.0.3 (linux64, gurobi_cl) logging started Thu Oct 14 12:56:38 2021

Using license file /usr/physics/gurobi/gurobi.lic
Set parameter TokenServer to value suphys.physics.usyd.edu.au
Set parameter LogFile to value gurobi.log

Gurobi 9.0.3 (linux64, gurobi_cl) logging started Sun Oct 17 13:21:34 2021

Using license file /usr/physics/gurobi/gurobi.lic
Set parameter TokenServer to value suphys.physics.usyd.edu.au
Set parameter LogFile to value gurobi.log

Gurobi 9.0.3 (linux64, gurobi_cl) logging started Sun Oct 17 13:21:48 2021

Using license file /usr/physics/gurobi/gurobi.lic
Set parameter TokenServer to value suphys.physics.usyd.edu.au
Set parameter LogFile to value gurobi.log

Gurobi 9.0.3 (linux64, gurobi_cl) logging started Sun Oct 17 13:30:59 2021

Using license file /usr/physics/gurobi/gurobi.lic
Set parameter TokenServer to value suphys.physics.usyd.edu.au
Set parameter LogFile to value gurobi.log

Gurobi 9.0.3 (linux64, gurobi_cl) logging started Sun Oct 17 13:35:09 2021

Using license file /usr/physics/gurobi/gurobi.lic
Set parameter TokenServer to value suphys.physics.usyd.edu.au
Set parameter LogFile to value gurobi.log

Gurobi 9.0.3 (linux64, gurobi_cl) logging started Sun Oct 17 13:36:25 2021

Using license file /usr/physics/gurobi/gurobi.lic
Set parameter TokenServer to value suphys.physics.usyd.edu.au
Set parameter LogFile to value gurobi.log

Gurobi 9.0.3 (linux64, gurobi_cl) logging started Sun Oct 17 13:46:52 2021

Using license file /usr/physics/gurobi/gurobi.lic
Set parameter TokenServer to value suphys.physics.usyd.edu.au
Set parameter LogFile to value gurobi.log

Gurobi 9.0.3 (linux64, gurobi_cl) logging started Sun Oct 17 13:47:19 2021

Using license file /usr/physics/gurobi/gurobi.lic
Set parameter TokenServer to value suphys.physics.usyd.edu.au
Set parameter LogFile to value gurobi.log

Gurobi 9.0.3 (linux64, gurobi_cl) logging started Sun Oct 17 13:57:47 2021

Using license file /usr/physics/gurobi/gurobi.lic
Set parameter TokenServer to value suphys.physics.usyd.edu.au
Set parameter LogFile to value gurobi.log

Gurobi 9.0.3 (linux64, gurobi_cl) logging started Mon Nov  8 12:04:27 2021

Using license file /usr/physics/gurobi/gurobi.lic
Set parameter TokenServer to value suphys.physics.usyd.edu.au
Set parameter LogFile to value gurobi.log

Gurobi 9.0.3 (linux64, gurobi_cl) logging started Mon Nov  8 12:05:38 2021

Using license file /usr/physics/gurobi/gurobi.lic
Set parameter TokenServer to value suphys.physics.usyd.edu.au
Set parameter LogFile to value gurobi.log

Gurobi 9.0.3 (linux64, gurobi_cl) logging started Mon Nov  8 12:08:27 2021

Using license file /usr/physics/gurobi/gurobi.lic
Set parameter TokenServer to value suphys.physics.usyd.edu.au
Set parameter LogFile to value gurobi.log

Gurobi 9.0.3 (linux64, gurobi_cl) logging started Mon Nov  8 12:08:45 2021

Using license file /usr/physics/gurobi/gurobi.lic
Set parameter TokenServer to value suphys.physics.usyd.edu.au
Set parameter LogFile to value gurobi.log

Gurobi 9.0.3 (linux64, gurobi_cl) logging started Mon Nov  8 12:09:35 2021

Using license file /usr/physics/gurobi/gurobi.lic
Set parameter TokenServer to value suphys.physics.usyd.edu.au
Set parameter LogFile to value gurobi.log

Gurobi 9.0.3 (linux64, gurobi_cl) logging started Mon Nov  8 12:09:44 2021

Using license file /usr/physics/gurobi/gurobi.lic
Set parameter TokenServer to value suphys.physics.usyd.edu.au
Set parameter LogFile to value gurobi.log

Gurobi 9.0.3 (linux64, gurobi_cl) logging started Mon Nov  8 12:09:56 2021

Using license file /usr/physics/gurobi/gurobi.lic
Set parameter TokenServer to value suphys.physics.usyd.edu.au
Set parameter LogFile to value gurobi.log

Gurobi 9.0.3 (linux64, gurobi_cl) logging started Mon Nov  8 12:18:22 2021

Using license file /usr/physics/gurobi/gurobi.lic
Set parameter TokenServer to value suphys.physics.usyd.edu.au
Set parameter LogFile to value gurobi.log

Gurobi 9.0.3 (linux64, gurobi_cl) logging started Mon Nov  8 12:18:40 2021

Using license file /usr/physics/gurobi/gurobi.lic
Set parameter TokenServer to value suphys.physics.usyd.edu.au
Set parameter LogFile to value gurobi.log

Gurobi 9.0.3 (linux64, gurobi_cl) logging started Mon Nov  8 12:20:15 2021

Using license file /usr/physics/gurobi/gurobi.lic
Set parameter TokenServer to value suphys.physics.usyd.edu.au
Set parameter LogFile to value gurobi.log

Gurobi 9.0.3 (linux64, gurobi_cl) logging started Mon Nov  8 12:23:02 2021

Using license file /usr/physics/gurobi/gurobi.lic
Set parameter TokenServer to value suphys.physics.usyd.edu.au
Set parameter LogFile to value gurobi.log

Gurobi 9.0.3 (linux64, gurobi_cl) logging started Mon Nov  8 12:23:07 2021

Using license file /usr/physics/gurobi/gurobi.lic
Set parameter TokenServer to value suphys.physics.usyd.edu.au
Set parameter LogFile to value gurobi.log

Gurobi 9.0.3 (linux64, gurobi_cl) logging started Mon Nov  8 12:24:33 2021

Using license file /usr/physics/gurobi/gurobi.lic
Set parameter TokenServer to value suphys.physics.usyd.edu.au
Set parameter LogFile to value gurobi.log

Gurobi 9.0.3 (linux64, gurobi_cl) logging started Mon Nov  8 12:25:06 2021

Using license file /usr/physics/gurobi/gurobi.lic
Set parameter TokenServer to value suphys.physics.usyd.edu.au
Set parameter LogFile to value gurobi.log

Gurobi 9.0.3 (linux64, gurobi_cl) logging started Mon Nov  8 12:25:15 2021

Using license file /usr/physics/gurobi/gurobi.lic
Set parameter TokenServer to value suphys.physics.usyd.edu.au
Set parameter LogFile to value gurobi.log

Gurobi 9.0.3 (linux64, gurobi_cl) logging started Mon Nov  8 12:25:32 2021

Using license file /usr/physics/gurobi/gurobi.lic
Set parameter TokenServer to value suphys.physics.usyd.edu.au
Set parameter LogFile to value gurobi.log

Gurobi 9.0.3 (linux64, gurobi_cl) logging started Mon Nov  8 12:25:47 2021

Using license file /usr/physics/gurobi/gurobi.lic
Set parameter TokenServer to value suphys.physics.usyd.edu.au
Set parameter LogFile to value gurobi.log

Gurobi 9.0.3 (linux64, gurobi_cl) logging started Mon Nov  8 12:32:38 2021

Using license file /usr/physics/gurobi/gurobi.lic
Set parameter TokenServer to value suphys.physics.usyd.edu.au
Set parameter LogFile to value gurobi.log

Gurobi 9.0.3 (linux64, gurobi_cl) logging started Mon Nov  8 12:33:31 2021

Using license file /usr/physics/gurobi/gurobi.lic
Set parameter TokenServer to value suphys.physics.usyd.edu.au
Set parameter LogFile to value gurobi.log

Gurobi 9.0.3 (linux64, gurobi_cl) logging started Mon Nov  8 12:57:53 2021

Using license file /usr/physics/gurobi/gurobi.lic
Set parameter TokenServer to value suphys.physics.usyd.edu.au
Set parameter LogFile to value gurobi.log

Gurobi 9.0.3 (linux64, gurobi_cl) logging started Tue Nov  9 11:33:22 2021

Using license file /usr/physics/gurobi/gurobi.lic
Set parameter TokenServer to value suphys.physics.usyd.edu.au
Set parameter LogFile to value gurobi.log

Gurobi 9.0.3 (linux64, gurobi_cl) logging started Tue Nov  9 11:35:33 2021

Using license file /usr/physics/gurobi/gurobi.lic
Set parameter TokenServer to value suphys.physics.usyd.edu.au
Set parameter LogFile to value gurobi.log

Gurobi 9.0.3 (linux64, gurobi_cl) logging started Tue Nov  9 11:35:43 2021

Using license file /usr/physics/gurobi/gurobi.lic
Set parameter TokenServer to value suphys.physics.usyd.edu.au
Set parameter LogFile to value gurobi.log

Gurobi 9.0.3 (linux64, gurobi_cl) logging started Tue Nov  9 11:35:52 2021

Using license file /usr/physics/gurobi/gurobi.lic
Set parameter TokenServer to value suphys.physics.usyd.edu.au
Set parameter LogFile to value gurobi.log

Gurobi 9.0.3 (linux64, gurobi_cl) logging started Tue Nov  9 11:36:06 2021

Using license file /usr/physics/gurobi/gurobi.lic
Set parameter TokenServer to value suphys.physics.usyd.edu.au
Set parameter LogFile to value gurobi.log
